proyfinal/src/viki/013/experimentInOfficeAgust.take6.output/75ca2af7-084d-424c-bd56-27a5b3e969be.als.dat
{'cnf.clauses': '118081',
 'cnf.totvars': '69608',
 'conflict literals': '19',
 'conflicts': '12',
 'decisions': '2444',
 'memused.mb': '15.96',
 'outcome': 'UNSAT',
 'propagations': '21979',
 'restarts': '1',
 'solver.msecs': 37,
 'task.msecs': 228}
