proyfinal/src/viki/013/experimentInOfficeAgust.take6.output/75ca2af7-084d-424c-bd56-27a5b3e969be.als.out
Reading from standard input... Use '--help' for help.
============================[ Problem Statistics ]=============================
|                                                                             |
|  Number of variables:         69608                                         |
|  Number of clauses:          118081                                         |
|  Parse time:                   0.03 s                                       |
|                                                                             |
============================[ Search Statistics ]==============================
| Conflicts |          ORIGINAL         |          LEARNT          | Progress |
|           |    Vars  Clauses Literals |    Limit  Clauses Lit/Cl |          |
===============================================================================
===============================================================================
restarts              : 1
conflicts             : 12             (323 /sec)
decisions             : 2444           (0.00 % random) (65754 /sec)
propagations          : 21979          (591326 /sec)
conflict literals     : 19             (0.00 % deleted)
Memory used           : 15.96 MB
CPU time              : 0.037169 s

UNSATISFIABLE
